47

1 23
1 24
1 25
1 27
2 5
2 24
2 25
2 27
6 4
13 32
13 29
16 44
14 10
14 21
10 21
3 6
3 46
46 6
46 16
46 28
46 5
46 19
46 43
4 6
14 18
19 21
43 36
43 33
36 33
33 38
33 35
35 40
41 33
41 40
33 44
36 30
41 30
31 35
31 45
31 37
31 40
13 17
13 33
13 36
13 43
16 33
16 36
16 43
16 13
21 16
21 13
21 33
21 36
21 43
19 21
19 16
19 13
19 43
19 36
19 33
20 19
20 21
20 16
20 13
20 33
20 36
20 43
14 20
14 19
14 21
14 16
14 13
14 43
14 36
14 33
0 0